set I := 0 1 ;
set F := 0 1 2 ;
set J := 0 1 2 3 4 ;
param p := 
0  67.526
1  85.479
;
param d := 
0  21.125
1  22.425
2  13.758
3  11.095
4  33.600
;
param: b h := 
0  780.238  42.263
1  954.050  54.127
2  979.093  56.615
;
param c : 0       1       2       :=
0   7.597   3.386   7.168  
1   5.534   6.939   4.383  
;
param t : 0       1       2       3       4       :=
0   1.860   7.826   10.871  6.982   6.049  
1   8.124   5.563   3.621   6.130   8.068  
2   7.517   1.811   2.409   2.827   4.970  
;
end;